p cnf 7230 15
-3426 3954 -3957 0
3426 -3955 0
1610 -3957 0
-1610 -3432 -3440 -3446 3956 0
3440 -3957 0
-3955 3957 0
3432 -3957 0
3446 -3957 0
-3954 3955 0
-3956 3957 0
-3952 3953 0
3952 -3953 0
3446 -3959 0
3440 -3959 0
1610 -3959 0
